min: c;

c = 3.41916764582123 * u4_t1_h1 + 3.64394407407172 * u4_t1_h2 + 3.03636024909912 * u4_t1_h3 + 2.77920396669597 * u4_t1_h4 + 2.77920396669597 * u4_t10_h4 + 4.01087639010308 * u4_t1_h5 + 4.01087639010308 * u4_t10_h5 + 3.64308342339925 * u4_t1_h6 + 3.64308342339925 * u4_t10_h6 + 4.24760702324036 * u4_t1_h7 + 4.24760702324036 * u4_t10_h7 + 5.74046879629691 * u4_t1_h8 + 5.74046879629691 * u4_t9_h8 + 5.74046879629691 * u4_t10_h8 + 5.21490126052062 * u4_t9_h9 + 5.21490126052062 * u4_t10_h9 + 5.67102162017065 * u4_t9_h10 + 5.67102162017065 * u4_t10_h10 + 3.91576518730634 * u4_t2_h11 + 3.91576518730634 * u4_t4_h11 + 3.91576518730634 * u4_t9_h11 + 3.91576518730634 * u4_t10_h11 + 6.3951482641867 * u4_t2_h12 + 6.3951482641867 * u4_t3_h12 + 6.3951482641867 * u4_t4_h12 + 6.3951482641867 * u4_t8_h12 + 6.3951482641867 * u4_t9_h12 + 6.3951482641867 * u4_t10_h12 + 4.68897098556618 * u4_t2_h13 + 4.68897098556618 * u4_t3_h13 + 4.68897098556618 * u4_t4_h13 + 4.68897098556618 * u4_t8_h13 + 4.68897098556618 * u4_t9_h13 + 4.9308049258183 * u4_t2_h14 + 4.9308049258183 * u4_t3_h14 + 4.9308049258183 * u4_t4_h14 + 4.9308049258183 * u4_t8_h14 + 4.9308049258183 * u4_t9_h14 + 5.96338711752127 * u4_t2_h15 + 5.96338711752127 * u4_t3_h15 + 5.96338711752127 * u4_t4_h15 + 5.96338711752127 * u4_t8_h15 + 5.96338711752127 * u4_t9_h15 + 5.56828418939799 * u4_t2_h16 + 5.56828418939799 * u4_t3_h16 + 5.56828418939799 * u4_t4_h16 + 5.56828418939799 * u4_t5_h16 + 5.56828418939799 * u4_t8_h16 + 5.56828418939799 * u4_t9_h16 + 6.56066347480759 * u4_t2_h17 + 6.56066347480759 * u4_t3_h17 + 6.56066347480759 * u4_t5_h17 + 6.56066347480759 * u4_t8_h17 + 6.56066347480759 * u4_t9_h17 + 6.53102770834909 * u4_t2_h18 + 6.53102770834909 * u4_t3_h18 + 6.53102770834909 * u4_t5_h18 + 6.53102770834909 * u4_t8_h18 + 6.53102770834909 * u4_t9_h18 + 5.77601348971926 * u4_t2_h19 + 5.77601348971926 * u4_t3_h19 + 5.77601348971926 * u4_t6_h19 + 5.77601348971926 * u4_t8_h19 + 5.77601348971926 * u4_t9_h19 + 5.65149615978597 * u4_t2_h20 + 5.65149615978597 * u4_t6_h20 + 5.65149615978597 * u4_t9_h20 + 5.35639013412676 * u4_t6_h21 + 5.23297024203777 * u4_t6_h22 + 5.23297024203777 * u4_t7_h22 + 5.65769021795724 * u4_t6_h23 + 5.65769021795724 * u4_t7_h23;
0 <= u4_t1_h1 <= 1;
0 <= u4_t1_h2 <= 1;
0 <= u4_t1_h3 <= 1;
0 <= u4_t1_h4 <= 1;
0 <= u4_t1_h5 <= 1;
0 <= u4_t1_h6 <= 1;
0 <= u4_t1_h7 <= 1;
0 <= u4_t1_h8 <= 1;
u4_t1_h1 + u4_t1_h2 + u4_t1_h3 + u4_t1_h4 + u4_t1_h5 + u4_t1_h6 + u4_t1_h7 + u4_t1_h8 = 1;
0 <= u4_t2_h11 <= 1;
0 <= u4_t2_h12 <= 1;
0 <= u4_t2_h13 <= 1;
0 <= u4_t2_h14 <= 1;
0 <= u4_t2_h15 <= 1;
0 <= u4_t2_h16 <= 1;
0 <= u4_t2_h17 <= 1;
0 <= u4_t2_h18 <= 1;
0 <= u4_t2_h19 <= 1;
0 <= u4_t2_h20 <= 1;
u4_t2_h11 + u4_t2_h12 + u4_t2_h13 + u4_t2_h14 + u4_t2_h15 + u4_t2_h16 + u4_t2_h17 + u4_t2_h18 + u4_t2_h19 + u4_t2_h20 = 2;
0 <= u4_t3_h12 <= 1;
0 <= u4_t3_h13 <= 1;
0 <= u4_t3_h14 <= 1;
0 <= u4_t3_h15 <= 1;
0 <= u4_t3_h16 <= 1;
0 <= u4_t3_h17 <= 1;
0 <= u4_t3_h18 <= 1;
0 <= u4_t3_h19 <= 1;
u4_t3_h12 + u4_t3_h13 + u4_t3_h14 + u4_t3_h15 + u4_t3_h16 + u4_t3_h17 + u4_t3_h18 + u4_t3_h19 = 3;
0 <= u4_t4_h11 <= 1;
0 <= u4_t4_h12 <= 1;
0 <= u4_t4_h13 <= 1;
0 <= u4_t4_h14 <= 1;
0 <= u4_t4_h15 <= 1;
0 <= u4_t4_h16 <= 1;
u4_t4_h11 + u4_t4_h12 + u4_t4_h13 + u4_t4_h14 + u4_t4_h15 + u4_t4_h16 = 3;
0 <= u4_t5_h16 <= 1;
0 <= u4_t5_h17 <= 1;
0 <= u4_t5_h18 <= 1;
u4_t5_h16 + u4_t5_h17 + u4_t5_h18 = 1;
0 <= u4_t6_h19 <= 1;
0 <= u4_t6_h20 <= 1;
0 <= u4_t6_h21 <= 1;
0 <= u4_t6_h22 <= 1;
0 <= u4_t6_h23 <= 1;
u4_t6_h19 + u4_t6_h20 + u4_t6_h21 + u4_t6_h22 + u4_t6_h23 = 3;
0 <= u4_t7_h22 <= 1;
0 <= u4_t7_h23 <= 1;
u4_t7_h22 + u4_t7_h23 = 1;
0 <= u4_t8_h12 <= 1;
0 <= u4_t8_h13 <= 1;
0 <= u4_t8_h14 <= 1;
0 <= u4_t8_h15 <= 1;
0 <= u4_t8_h16 <= 1;
0 <= u4_t8_h17 <= 1;
0 <= u4_t8_h18 <= 1;
0 <= u4_t8_h19 <= 1;
u4_t8_h12 + u4_t8_h13 + u4_t8_h14 + u4_t8_h15 + u4_t8_h16 + u4_t8_h17 + u4_t8_h18 + u4_t8_h19 = 2;
0 <= u4_t9_h8 <= 1;
0 <= u4_t9_h9 <= 1;
0 <= u4_t9_h10 <= 1;
0 <= u4_t9_h11 <= 1;
0 <= u4_t9_h12 <= 1;
0 <= u4_t9_h13 <= 1;
0 <= u4_t9_h14 <= 1;
0 <= u4_t9_h15 <= 1;
0 <= u4_t9_h16 <= 1;
0 <= u4_t9_h17 <= 1;
0 <= u4_t9_h18 <= 1;
0 <= u4_t9_h19 <= 1;
0 <= u4_t9_h20 <= 1;
u4_t9_h8 + u4_t9_h9 + u4_t9_h10 + u4_t9_h11 + u4_t9_h12 + u4_t9_h13 + u4_t9_h14 + u4_t9_h15 + u4_t9_h16 + u4_t9_h17 + u4_t9_h18 + u4_t9_h19 + u4_t9_h20 = 2;
0 <= u4_t10_h4 <= 1;
0 <= u4_t10_h5 <= 1;
0 <= u4_t10_h6 <= 1;
0 <= u4_t10_h7 <= 1;
0 <= u4_t10_h8 <= 1;
0 <= u4_t10_h9 <= 1;
0 <= u4_t10_h10 <= 1;
0 <= u4_t10_h11 <= 1;
0 <= u4_t10_h12 <= 1;
u4_t10_h4 + u4_t10_h5 + u4_t10_h6 + u4_t10_h7 + u4_t10_h8 + u4_t10_h9 + u4_t10_h10 + u4_t10_h11 + u4_t10_h12 = 2;
